c Standarized MaxSat Instance
c{
c "sha1sum": "5ebbc529f8465cd23d81a982cf94837df57ddff6",
c "nvars": 140,
c "ncls": 1260,
c "total_lits": 2520,
c "nhards": 0,
c "nhard_nlits": 0,
c "nhard_len_stats":
c    { "min": 0,
c      "max": 0,
c      "ave": 0.0000,
c      "stddev": 0.0000 },
c "nsofts": 1260,
c "nsoft_nlits": 2520,
c "nsoft_len_stats":
c    { "min": 2,
c      "max": 2,
c      "ave": 2.0000,
c      "stddev": 0.0000 },
c "nsoft_wts": 1,
c "soft_wt_stats":
c    { "min": 1,
c      "max": 1,
c      "ave": 1.0000,
c      "stddev": 0.0000 }
c}
c------------------------------------------------------------
c strEdges: 189  randomEdges: 441 
c degrees:  2  3 
c girth: 10 max: 8.032766  
c Hgirth mixed MAXCUT instance
c generated from an undirected graph
c to solve unweighted MaxCut
1 86 11 0
1 -86 -11 0
1 86 104 0
1 -86 -104 0
1 86 139 0
1 -86 -139 0
1 79 6 0
1 -79 -6 0
1 79 38 0
1 -79 -38 0
1 79 137 0
1 -79 -137 0
1 54 8 0
1 -54 -8 0
1 54 108 0
1 -54 -108 0
1 54 131 0
1 -54 -131 0
1 10 115 0
1 -10 -115 0
1 10 27 0
1 -10 -27 0
1 10 7 0
1 -10 -7 0
1 111 104 0
1 -111 -104 0
1 111 94 0
1 -111 -94 0
1 111 133 0
1 -111 -133 0
1 48 27 0
1 -48 -27 0
1 48 102 0
1 -48 -102 0
1 48 90 0
1 -48 -90 0
1 66 131 0
1 -66 -131 0
1 66 80 0
1 -66 -80 0
1 66 51 0
1 -66 -51 0
1 88 97 0
1 -88 -97 0
1 88 118 0
1 -88 -118 0
1 88 65 0
1 -88 -65 0
1 113 13 0
1 -113 -13 0
1 113 29 0
1 -113 -29 0
1 113 56 0
1 -113 -56 0
1 44 135 0
1 -44 -135 0
1 44 74 0
1 -44 -74 0
1 44 115 0
1 -44 -115 0
1 110 78 0
1 -110 -78 0
1 110 2 0
1 -110 -2 0
1 114 4 0
1 -114 -4 0
1 114 123 0
1 -114 -123 0
1 114 38 0
1 -114 -38 0
1 96 129 0
1 -96 -129 0
1 96 27 0
1 -96 -27 0
1 138 103 0
1 -138 -103 0
1 138 102 0
1 -138 -102 0
1 138 36 0
1 -138 -36 0
1 34 137 0
1 -34 -137 0
1 34 13 0
1 -34 -13 0
1 39 30 0
1 -39 -30 0
1 39 103 0
1 -39 -103 0
1 52 37 0
1 -52 -37 0
1 52 105 0
1 -52 -105 0
1 92 127 0
1 -92 -127 0
1 92 30 0
1 -92 -30 0
1 95 46 0
1 -95 -46 0
1 95 51 0
1 -95 -51 0
1 95 129 0
1 -95 -129 0
1 26 31 0
1 -26 -31 0
1 26 112 0
1 -26 -112 0
1 33 62 0
1 -33 -62 0
1 33 4 0
1 -33 -4 0
1 41 118 0
1 -41 -118 0
1 41 61 0
1 -41 -61 0
1 41 17 0
1 -41 -17 0
1 89 128 0
1 -89 -128 0
1 89 77 0
1 -89 -77 0
1 89 133 0
1 -89 -133 0
1 9 84 0
1 -9 -84 0
1 9 105 0
1 -9 -105 0
1 9 101 0
1 -9 -101 0
1 72 5 0
1 -72 -5 0
1 72 62 0
1 -72 -62 0
1 72 24 0
1 -72 -24 0
1 40 83 0
1 -40 -83 0
1 40 129 0
1 -40 -129 0
1 40 31 0
1 -40 -31 0
1 50 120 0
1 -50 -120 0
1 50 122 0
1 -50 -122 0
1 50 78 0
1 -50 -78 0
1 43 85 0
1 -43 -85 0
1 43 6 0
1 -43 -6 0
1 116 101 0
1 -116 -101 0
1 116 90 0
1 -116 -90 0
1 116 17 0
1 -116 -17 0
1 98 20 0
1 -98 -20 0
1 98 36 0
1 -98 -36 0
1 98 100 0
1 -98 -100 0
1 81 93 0
1 -81 -93 0
1 81 71 0
1 -81 -71 0
1 81 31 0
1 -81 -31 0
1 119 90 0
1 -119 -90 0
1 119 67 0
1 -119 -67 0
1 119 136 0
1 -119 -136 0
1 130 58 0
1 -130 -58 0
1 130 6 0
1 -130 -6 0
1 130 104 0
1 -130 -104 0
1 107 61 0
1 -107 -61 0
1 107 85 0
1 -107 -85 0
1 107 120 0
1 -107 -120 0
1 68 80 0
1 -68 -80 0
1 68 5 0
1 -68 -5 0
1 68 78 0
1 -68 -78 0
1 28 63 0
1 -28 -63 0
1 28 20 0
1 -28 -20 0
1 28 24 0
1 -28 -24 0
1 49 7 0
1 -49 -7 0
1 49 120 0
1 -49 -120 0
1 73 100 0
1 -73 -100 0
1 73 11 0
1 -73 -11 0
1 73 115 0
1 -73 -115 0
1 69 105 0
1 -69 -105 0
1 69 131 0
1 -69 -131 0
1 25 74 0
1 -25 -74 0
1 25 62 0
1 -25 -62 0
1 25 108 0
1 -25 -108 0
1 109 121 0
1 -109 -121 0
1 109 103 0
1 -109 -103 0
1 109 85 0
1 -109 -85 0
1 32 2 0
1 -32 -2 0
1 32 124 0
1 -32 -124 0
1 32 127 0
1 -32 -127 0
1 99 15 0
1 -99 -15 0
1 99 135 0
1 -99 -135 0
1 99 118 0
1 -99 -118 0
1 23 60 0
1 -23 -60 0
1 23 4 0
1 -23 -4 0
1 23 65 0
1 -23 -65 0
1 45 133 0
1 -45 -133 0
1 45 106 0
1 -45 -106 0
1 45 2 0
1 -45 -2 0
1 22 94 0
1 -22 -94 0
1 22 46 0
1 -22 -46 0
1 3 64 0
1 -3 -64 0
1 3 75 0
1 -3 -75 0
1 3 46 0
1 -3 -46 0
1 16 132 0
1 -16 -132 0
1 16 84 0
1 -16 -84 0
1 16 121 0
1 -16 -121 0
1 91 124 0
1 -91 -124 0
1 91 136 0
1 -91 -136 0
1 91 35 0
1 -91 -35 0
1 12 139 0
1 -12 -139 0
1 12 37 0
1 -12 -37 0
1 12 122 0
1 -12 -122 0
1 19 123 0
1 -19 -123 0
1 19 101 0
1 -19 -101 0
1 59 108 0
1 -59 -108 0
1 59 97 0
1 -59 -97 0
1 59 94 0
1 -59 -94 0
1 55 75 0
1 -55 -75 0
1 55 93 0
1 -55 -93 0
1 55 15 0
1 -55 -15 0
1 70 56 0
1 -70 -56 0
1 70 74 0
1 -70 -74 0
1 18 36 0
1 -18 -36 0
1 18 123 0
1 -18 -123 0
1 18 106 0
1 -18 -106 0
1 126 17 0
1 -126 -17 0
1 126 83 0
1 -126 -83 0
1 126 63 0
1 -126 -63 0
1 134 51 0
1 -134 -51 0
1 134 29 0
1 -134 -29 0
1 125 67 0
1 -125 -67 0
1 125 58 0
1 -125 -58 0
1 125 80 0
1 -125 -80 0
1 1 71 0
1 -1 -71 0
1 1 60 0
1 -1 -60 0
1 1 37 0
1 -1 -37 0
1 53 24 0
1 -53 -24 0
1 53 75 0
1 -53 -75 0
1 117 122 0
1 -117 -122 0
1 117 64 0
1 -117 -64 0
1 117 128 0
1 -117 -128 0
1 57 65 0
1 -57 -65 0
1 57 30 0
1 -57 -30 0
1 76 106 0
1 -76 -106 0
1 76 83 0
1 -76 -83 0
1 42 102 0
1 -42 -102 0
1 42 112 0
1 -42 -112 0
1 47 29 0
1 -47 -29 0
1 47 35 0
1 -47 -35 0
1 47 71 0
1 -47 -71 0
1 21 77 0
1 -21 -77 0
1 21 56 0
1 -21 -56 0
1 14 112 0
1 -14 -112 0
1 14 128 0
1 -14 -128 0
1 14 8 0
1 -14 -8 0
1 87 136 0
1 -87 -136 0
1 87 97 0
1 -87 -97 0
1 140 38 0
1 -140 -38 0
1 140 64 0
1 -140 -64 0
1 140 127 0
1 -140 -127 0
1 82 35 0
1 -82 -35 0
1 82 63 0
1 -82 -63 0
1 82 132 0
1 -82 -132 0
1 58 75 0
1 -58 -75 0
1 100 56 0
1 -100 -56 0
1 140 122 0
1 -140 -122 0
1 5 51 0
1 -5 -51 0
1 81 108 0
1 -81 -108 0
1 138 95 0
1 -138 -95 0
1 57 4 0
1 -57 -4 0
1 39 89 0
1 -39 -89 0
1 75 51 0
1 -75 -51 0
1 110 51 0
1 -110 -51 0
1 127 67 0
1 -127 -67 0
1 115 133 0
1 -115 -133 0
1 52 140 0
1 -52 -140 0
1 32 7 0
1 -32 -7 0
1 66 108 0
1 -66 -108 0
1 62 133 0
1 -62 -133 0
1 68 8 0
1 -68 -8 0
1 45 102 0
1 -45 -102 0
1 86 29 0
1 -86 -29 0
1 20 94 0
1 -20 -94 0
1 45 4 0
1 -45 -4 0
1 10 131 0
1 -10 -131 0
1 119 140 0
1 -119 -140 0
1 128 105 0
1 -128 -105 0
1 100 35 0
1 -100 -35 0
1 18 21 0
1 -18 -21 0
1 44 106 0
1 -44 -106 0
1 115 83 0
1 -115 -83 0
1 135 75 0
1 -135 -75 0
1 7 100 0
1 -7 -100 0
1 107 51 0
1 -107 -51 0
1 54 94 0
1 -54 -94 0
1 21 84 0
1 -21 -84 0
1 28 70 0
1 -28 -70 0
1 13 67 0
1 -13 -67 0
1 107 42 0
1 -107 -42 0
1 44 20 0
1 -44 -20 0
1 16 55 0
1 -16 -55 0
1 55 121 0
1 -55 -121 0
1 118 93 0
1 -118 -93 0
1 49 63 0
1 -49 -63 0
1 114 102 0
1 -114 -102 0
1 62 2 0
1 -62 -2 0
1 113 15 0
1 -113 -15 0
1 84 94 0
1 -84 -94 0
1 84 2 0
1 -84 -2 0
1 19 4 0
1 -19 -4 0
1 37 127 0
1 -37 -127 0
1 54 72 0
1 -54 -72 0
1 107 56 0
1 -107 -56 0
1 43 56 0
1 -43 -56 0
1 34 25 0
1 -34 -25 0
1 43 129 0
1 -43 -129 0
1 3 85 0
1 -3 -85 0
1 54 17 0
1 -54 -17 0
1 19 24 0
1 -19 -24 0
1 105 56 0
1 -105 -56 0
1 54 122 0
1 -54 -122 0
1 45 77 0
1 -45 -77 0
1 4 15 0
1 -4 -15 0
1 98 68 0
1 -98 -68 0
1 81 104 0
1 -81 -104 0
1 4 61 0
1 -4 -61 0
1 54 85 0
1 -54 -85 0
1 41 50 0
1 -41 -50 0
1 88 99 0
1 -88 -99 0
1 79 98 0
1 -79 -98 0
1 100 133 0
1 -100 -133 0
1 132 56 0
1 -132 -56 0
1 79 44 0
1 -79 -44 0
1 140 51 0
1 -140 -51 0
1 78 101 0
1 -78 -101 0
1 73 37 0
1 -73 -37 0
1 52 134 0
1 -52 -134 0
1 140 132 0
1 -140 -132 0
1 72 108 0
1 -72 -108 0
1 10 119 0
1 -10 -119 0
1 43 122 0
1 -43 -122 0
1 84 122 0
1 -84 -122 0
1 44 109 0
1 -44 -109 0
1 23 5 0
1 -23 -5 0
1 134 67 0
1 -134 -67 0
1 86 136 0
1 -86 -136 0
1 11 37 0
1 -11 -37 0
1 3 131 0
1 -3 -131 0
1 68 23 0
1 -68 -23 0
1 46 121 0
1 -46 -121 0
1 19 6 0
1 -19 -6 0
1 81 7 0
1 -81 -7 0
1 115 101 0
1 -115 -101 0
1 130 139 0
1 -130 -139 0
1 88 2 0
1 -88 -2 0
1 39 126 0
1 -39 -126 0
1 104 105 0
1 -104 -105 0
1 34 72 0
1 -34 -72 0
1 81 13 0
1 -81 -13 0
1 19 55 0
1 -19 -55 0
1 52 89 0
1 -52 -89 0
1 115 35 0
1 -115 -35 0
1 105 123 0
1 -105 -123 0
1 86 106 0
1 -86 -106 0
1 48 6 0
1 -48 -6 0
1 107 12 0
1 -107 -12 0
1 80 29 0
1 -80 -29 0
1 92 124 0
1 -92 -124 0
1 13 58 0
1 -13 -58 0
1 130 90 0
1 -130 -90 0
1 90 102 0
1 -90 -102 0
1 73 134 0
1 -73 -134 0
1 75 38 0
1 -75 -38 0
1 6 5 0
1 -6 -5 0
1 1 133 0
1 -1 -133 0
1 119 64 0
1 -119 -64 0
1 95 36 0
1 -95 -36 0
1 54 74 0
1 -54 -74 0
1 123 51 0
1 -123 -51 0
1 13 36 0
1 -13 -36 0
1 70 38 0
1 -70 -38 0
1 86 7 0
1 -86 -7 0
1 64 102 0
1 -64 -102 0
1 39 21 0
1 -39 -21 0
1 117 127 0
1 -117 -127 0
1 8 5 0
1 -8 -5 0
1 19 38 0
1 -19 -38 0
1 117 132 0
1 -117 -132 0
1 3 18 0
1 -3 -18 0
1 114 96 0
1 -114 -96 0
1 102 112 0
1 -102 -112 0
1 63 102 0
1 -63 -102 0
1 114 43 0
1 -114 -43 0
1 83 60 0
1 -83 -60 0
1 30 133 0
1 -30 -133 0
1 135 128 0
1 -135 -128 0
1 55 20 0
1 -55 -20 0
1 9 81 0
1 -9 -81 0
1 115 94 0
1 -115 -94 0
1 41 108 0
1 -41 -108 0
1 70 7 0
1 -70 -7 0
1 45 134 0
1 -45 -134 0
1 128 61 0
1 -128 -61 0
1 138 90 0
1 -138 -90 0
1 92 68 0
1 -92 -68 0
1 45 14 0
1 -45 -14 0
1 41 121 0
1 -41 -121 0
1 116 108 0
1 -116 -108 0
1 110 52 0
1 -110 -52 0
1 131 112 0
1 -131 -112 0
1 22 104 0
1 -22 -104 0
1 12 35 0
1 -12 -35 0
1 116 129 0
1 -116 -129 0
1 115 80 0
1 -115 -80 0
1 78 15 0
1 -78 -15 0
1 16 117 0
1 -16 -117 0
1 131 78 0
1 -131 -78 0
1 51 71 0
1 -51 -71 0
1 83 51 0
1 -83 -51 0
1 79 71 0
1 -79 -71 0
1 31 94 0
1 -31 -94 0
1 88 69 0
1 -88 -69 0
1 19 29 0
1 -19 -29 0
1 20 63 0
1 -20 -63 0
1 43 8 0
1 -43 -8 0
1 40 78 0
1 -40 -78 0
1 95 135 0
1 -95 -135 0
1 92 55 0
1 -92 -55 0
1 120 56 0
1 -120 -56 0
1 25 27 0
1 -25 -27 0
1 47 31 0
1 -47 -31 0
1 25 75 0
1 -25 -75 0
1 114 65 0
1 -114 -65 0
1 25 57 0
1 -25 -57 0
1 12 140 0
1 -12 -140 0
1 26 1 0
1 -26 -1 0
1 104 97 0
1 -104 -97 0
1 113 22 0
1 -113 -22 0
1 127 24 0
1 -127 -24 0
1 49 37 0
1 -49 -37 0
1 41 25 0
1 -41 -25 0
1 90 100 0
1 -90 -100 0
1 83 7 0
1 -83 -7 0
1 53 103 0
1 -53 -103 0
1 55 8 0
1 -55 -8 0
1 66 110 0
1 -66 -110 0
1 59 47 0
1 -59 -47 0
1 137 85 0
1 -137 -85 0
1 95 76 0
1 -95 -76 0
1 95 35 0
1 -95 -35 0
1 20 29 0
1 -20 -29 0
1 89 11 0
1 -89 -11 0
1 12 42 0
1 -12 -42 0
1 43 99 0
1 -43 -99 0
1 96 19 0
1 -96 -19 0
1 59 13 0
1 -59 -13 0
1 82 51 0
1 -82 -51 0
1 69 78 0
1 -69 -78 0
1 21 97 0
1 -21 -97 0
1 137 139 0
1 -137 -139 0
1 88 117 0
1 -88 -117 0
1 50 130 0
1 -50 -130 0
1 116 2 0
1 -116 -2 0
1 115 120 0
1 -115 -120 0
1 76 80 0
1 -76 -80 0
1 9 35 0
1 -9 -35 0
1 6 36 0
1 -6 -36 0
1 9 46 0
1 -9 -46 0
1 52 70 0
1 -52 -70 0
1 50 74 0
1 -50 -74 0
1 48 57 0
1 -48 -57 0
1 18 4 0
1 -18 -4 0
1 89 2 0
1 -89 -2 0
1 104 15 0
1 -104 -15 0
1 43 117 0
1 -43 -117 0
1 8 85 0
1 -8 -85 0
1 120 60 0
1 -120 -60 0
1 101 24 0
1 -101 -24 0
1 129 77 0
1 -129 -77 0
1 41 105 0
1 -41 -105 0
1 28 8 0
1 -28 -8 0
1 92 69 0
1 -92 -69 0
1 76 35 0
1 -76 -35 0
1 110 118 0
1 -110 -118 0
1 104 51 0
1 -104 -51 0
1 59 132 0
1 -59 -132 0
1 82 2 0
1 -82 -2 0
1 33 90 0
1 -33 -90 0
1 91 80 0
1 -91 -80 0
1 19 90 0
1 -19 -90 0
1 50 140 0
1 -50 -140 0
1 116 78 0
1 -116 -78 0
1 81 29 0
1 -81 -29 0
1 66 97 0
1 -66 -97 0
1 79 63 0
1 -79 -63 0
1 86 49 0
1 -86 -49 0
1 111 30 0
1 -111 -30 0
1 95 38 0
1 -95 -38 0
1 18 31 0
1 -18 -31 0
1 28 27 0
1 -28 -27 0
1 61 77 0
1 -61 -77 0
1 107 136 0
1 -107 -136 0
1 50 118 0
1 -50 -118 0
1 140 90 0
1 -140 -90 0
1 9 29 0
1 -9 -29 0
1 46 105 0
1 -46 -105 0
1 107 90 0
1 -107 -90 0
1 69 100 0
1 -69 -100 0
1 72 83 0
1 -72 -83 0
1 62 128 0
1 -62 -128 0
1 104 78 0
1 -104 -78 0
1 79 55 0
1 -79 -55 0
1 126 102 0
1 -126 -102 0
1 70 67 0
1 -70 -67 0
1 103 62 0
1 -103 -62 0
1 109 134 0
1 -109 -134 0
1 19 139 0
1 -19 -139 0
1 55 78 0
1 -55 -78 0
1 78 84 0
1 -78 -84 0
1 116 94 0
1 -116 -94 0
1 137 56 0
1 -137 -56 0
1 19 36 0
1 -19 -36 0
1 98 59 0
1 -98 -59 0
1 52 51 0
1 -52 -51 0
1 110 35 0
1 -110 -35 0
1 30 20 0
1 -30 -20 0
1 140 83 0
1 -140 -83 0
1 79 51 0
1 -79 -51 0
1 5 29 0
1 -5 -29 0
1 86 108 0
1 -86 -108 0
1 68 65 0
1 -68 -65 0
1 121 38 0
1 -121 -38 0
1 6 129 0
1 -6 -129 0
1 18 38 0
1 -18 -38 0
1 48 8 0
1 -48 -8 0
1 49 123 0
1 -49 -123 0
1 55 77 0
1 -55 -77 0
1 88 116 0
1 -88 -116 0
1 99 121 0
1 -99 -121 0
1 42 103 0
1 -42 -103 0
1 51 29 0
1 -51 -29 0
1 6 137 0
1 -6 -137 0
1 58 100 0
1 -58 -100 0
1 116 67 0
1 -116 -67 0
1 129 93 0
1 -129 -93 0
1 20 61 0
1 -20 -61 0
1 117 97 0
1 -117 -97 0
1 27 38 0
1 -27 -38 0
1 32 140 0
1 -32 -140 0
1 9 119 0
1 -9 -119 0
1 53 84 0
1 -53 -84 0
1 95 77 0
1 -95 -77 0
1 79 84 0
1 -79 -84 0
1 52 131 0
1 -52 -131 0
1 62 75 0
1 -62 -75 0
1 2 124 0
1 -2 -124 0
1 137 46 0
1 -137 -46 0
1 69 7 0
1 -69 -7 0
1 113 38 0
1 -113 -38 0
1 98 107 0
1 -98 -107 0
1 72 67 0
1 -72 -67 0
1 9 87 0
1 -9 -87 0
1 55 58 0
1 -55 -58 0
1 11 118 0
1 -11 -118 0
1 138 84 0
1 -138 -84 0
1 79 93 0
1 -79 -93 0
1 92 40 0
1 -92 -40 0
1 135 80 0
1 -135 -80 0
1 9 16 0
1 -9 -16 0
1 57 84 0
1 -57 -84 0
1 133 67 0
1 -133 -67 0
1 31 80 0
1 -31 -80 0
1 117 58 0
1 -117 -58 0
1 33 3 0
1 -33 -3 0
1 32 60 0
1 -32 -60 0
1 59 31 0
1 -59 -31 0
1 135 94 0
1 -135 -94 0
1 108 38 0
1 -108 -38 0
1 82 94 0
1 -82 -94 0
1 137 58 0
1 -137 -58 0
1 116 133 0
1 -116 -133 0
1 126 7 0
1 -126 -7 0
1 68 77 0
1 -68 -77 0
1 91 101 0
1 -91 -101 0
1 138 127 0
1 -138 -127 0
1 26 80 0
1 -26 -80 0
1 79 111 0
1 -79 -111 0
1 49 118 0
1 -49 -118 0
1 12 4 0
1 -12 -4 0
1 69 56 0
1 -69 -56 0
1 95 93 0
1 -95 -93 0
1 50 106 0
1 -50 -106 0
1 41 107 0
1 -41 -107 0
1 138 47 0
1 -138 -47 0
1 95 15 0
1 -95 -15 0
1 89 4 0
1 -89 -4 0
1 98 3 0
1 -98 -3 0
1 33 128 0
1 -33 -128 0
1 113 58 0
1 -113 -58 0
1 87 100 0
1 -87 -100 0
1 47 37 0
1 -47 -37 0
1 117 120 0
1 -117 -120 0
1 79 29 0
1 -79 -29 0
1 55 124 0
1 -55 -124 0
1 109 127 0
1 -109 -127 0
1 125 108 0
1 -125 -108 0
1 39 19 0
1 -39 -19 0
1 99 136 0
1 -99 -136 0
1 40 60 0
1 -40 -60 0
1 58 61 0
1 -58 -61 0
1 10 111 0
1 -10 -111 0
1 14 105 0
1 -14 -105 0
1 96 109 0
1 -96 -109 0
1 103 64 0
1 -103 -64 0
1 40 17 0
1 -40 -17 0
1 43 2 0
1 -43 -2 0
1 49 129 0
1 -49 -129 0
1 89 73 0
1 -89 -73 0
1 111 76 0
1 -111 -76 0
1 33 47 0
1 -33 -47 0
1 67 122 0
1 -67 -122 0
1 98 58 0
1 -98 -58 0
1 119 38 0
1 -119 -38 0
1 21 120 0
1 -21 -120 0
1 80 132 0
1 -80 -132 0
1 115 122 0
1 -115 -122 0
1 95 103 0
1 -95 -103 0
1 55 126 0
1 -55 -126 0
1 66 132 0
1 -66 -132 0
1 92 131 0
1 -92 -131 0
1 130 61 0
1 -130 -61 0
1 12 128 0
1 -12 -128 0
1 117 30 0
1 -117 -30 0
1 57 51 0
1 -57 -51 0
1 47 127 0
1 -47 -127 0
1 88 63 0
1 -88 -63 0
1 59 18 0
1 -59 -18 0
1 95 73 0
1 -95 -73 0
1 72 35 0
1 -72 -35 0
1 111 130 0
1 -111 -130 0
1 118 56 0
1 -118 -56 0
1 103 63 0
1 -103 -63 0
1 101 100 0
1 -101 -100 0
1 82 100 0
1 -82 -100 0
1 16 38 0
1 -16 -38 0
1 68 3 0
1 -68 -3 0
1 127 51 0
1 -127 -51 0
1 114 41 0
1 -114 -41 0
1 114 82 0
1 -114 -82 0
1 54 19 0
1 -54 -19 0
1 86 8 0
1 -86 -8 0
1 97 90 0
1 -97 -90 0
1 116 128 0
1 -116 -128 0
1 40 46 0
1 -40 -46 0
1 56 35 0
1 -56 -35 0
1 113 72 0
1 -113 -72 0
1 23 85 0
1 -23 -85 0
1 116 104 0
1 -116 -104 0
1 23 27 0
1 -23 -27 0
1 89 51 0
1 -89 -51 0
1 45 20 0
1 -45 -20 0
1 21 78 0
1 -21 -78 0
1 39 13 0
1 -39 -13 0
1 34 16 0
1 -34 -16 0
1 39 131 0
1 -39 -131 0
1 33 18 0
1 -33 -18 0
1 22 4 0
1 -22 -4 0
1 109 8 0
1 -109 -8 0
1 53 93 0
1 -53 -93 0
1 92 11 0
1 -92 -11 0
1 92 116 0
1 -92 -116 0
1 69 136 0
1 -69 -136 0
1 42 51 0
1 -42 -51 0
1 70 77 0
1 -70 -77 0
1 85 61 0
1 -85 -61 0
1 87 93 0
1 -87 -93 0
1 22 85 0
1 -22 -85 0
1 27 29 0
1 -27 -29 0
1 21 112 0
1 -21 -112 0
1 98 15 0
1 -98 -15 0
1 97 121 0
1 -97 -121 0
1 66 4 0
1 -66 -4 0
1 91 58 0
1 -91 -58 0
1 120 93 0
1 -120 -93 0
1 97 75 0
1 -97 -75 0
1 34 118 0
1 -34 -118 0
1 48 124 0
1 -48 -124 0
1 28 82 0
1 -28 -82 0
1 19 30 0
1 -19 -30 0
1 52 135 0
1 -52 -135 0
1 113 45 0
1 -113 -45 0
1 28 140 0
1 -28 -140 0
1 127 15 0
1 -127 -15 0
1 1 7 0
1 -1 -7 0
1 37 61 0
1 -37 -61 0
1 13 35 0
1 -13 -35 0
1 39 77 0
1 -39 -77 0
1 110 67 0
1 -110 -67 0
1 47 82 0
1 -47 -82 0
1 79 56 0
1 -79 -56 0
1 33 105 0
1 -33 -105 0
1 4 46 0
1 -4 -46 0
1 25 31 0
1 -25 -31 0
1 97 60 0
1 -97 -60 0
